data/lp_files/pEFS/54_5.lp
\ Model foo
\ LP format - for model browsing. Use MPS format to capture full model detail.
Minimize
  z
Subject To
 allocateEach[1]: x[1,1] + x[2,1] + x[3,1] = 1
 allocateEach[2]: x[1,2] + x[2,2] + x[3,2] = 1
 allocateEach[3]: x[1,3] + x[2,3] + x[3,3] = 1
 allocateEach[4]: x[1,4] + x[2,4] + x[3,4] = 1
 allocateEach[5]: x[1,5] + x[2,5] + x[3,5] = 1
 allocateEach[6]: x[1,6] + x[2,6] + x[3,6] = 1
 allocateEach[7]: x[1,7] + x[2,7] + x[3,7] = 1
 allocateEach[8]: x[1,8] + x[2,8] + x[3,8] = 1
 allocateEach[9]: x[1,9] + x[2,9] + x[3,9] = 1
 allocateEach[10]: x[1,10] + x[2,10] + x[3,10] = 1
 allocateEach[11]: x[1,11] + x[2,11] + x[3,11] = 1
 allocateEach[12]: x[1,12] + x[2,12] + x[3,12] = 1
 allocateEach[13]: x[1,13] + x[2,13] + x[3,13] = 1
 allocateEach[14]: x[1,14] + x[2,14] + x[3,14] = 1
 allocateAllCash: cashProportion[1] + cashProportion[2] + cashProportion[3]
   = 1
 findWorstP[1,2]: z + 0.0450727925599844 cashProportion[1]
   - 0.0450727925599844 cashProportion[2] + 0.00371099325410538 x[1,1]
   + 0.0320167069817756 x[1,2] + 0.1409275980708845 x[1,3]
   + 0.1475382743130155 x[1,4] + 0.074956054027254 x[1,5]
   + 0.0426689102901185 x[1,6] + 0.0444567977283313 x[1,7]
   + 0.0113883922534894 x[1,8] + 0.0612689493532054 x[1,9]
   + 0.1133280247599874 x[1,10] + 0.0485734461154765 x[1,11]
   + 0.1449240523445365 x[1,12] + 0.0328580657762286 x[1,13]
   + 0.0563109421716072 x[1,14] - 0.00371099325410538 x[2,1]
   - 0.0320167069817756 x[2,2] - 0.1409275980708845 x[2,3]
   - 0.1475382743130155 x[2,4] - 0.074956054027254 x[2,5]
   - 0.0426689102901185 x[2,6] - 0.0444567977283313 x[2,7]
   - 0.0113883922534894 x[2,8] - 0.0612689493532054 x[2,9]
   - 0.1133280247599874 x[2,10] - 0.0485734461154765 x[2,11]
   - 0.1449240523445365 x[2,12] - 0.0328580657762286 x[2,13]
   - 0.0563109421716072 x[2,14] >= 0
 findWorstP[1,3]: z + 0.0450727925599844 cashProportion[1]
   - 0.0450727925599844 cashProportion[3] + 0.00371099325410538 x[1,1]
   + 0.0320167069817756 x[1,2] + 0.1409275980708845 x[1,3]
   + 0.1475382743130155 x[1,4] + 0.074956054027254 x[1,5]
   + 0.0426689102901185 x[1,6] + 0.0444567977283313 x[1,7]
   + 0.0113883922534894 x[1,8] + 0.0612689493532054 x[1,9]
   + 0.1133280247599874 x[1,10] + 0.0485734461154765 x[1,11]
   + 0.1449240523445365 x[1,12] + 0.0328580657762286 x[1,13]
   + 0.0563109421716072 x[1,14] - 0.00371099325410538 x[3,1]
   - 0.0320167069817756 x[3,2] - 0.1409275980708845 x[3,3]
   - 0.1475382743130155 x[3,4] - 0.074956054027254 x[3,5]
   - 0.0426689102901185 x[3,6] - 0.0444567977283313 x[3,7]
   - 0.0113883922534894 x[3,8] - 0.0612689493532054 x[3,9]
   - 0.1133280247599874 x[3,10] - 0.0485734461154765 x[3,11]
   - 0.1449240523445365 x[3,12] - 0.0328580657762286 x[3,13]
   - 0.0563109421716072 x[3,14] >= 0
 findWorstP[2,1]: z - 0.0384009830651665 cashProportion[1]
   + 0.0384009830651665 cashProportion[2] - 0.0314376048026829 x[1,1]
   - 0.0781075995545486 x[1,2] - 0.0504716920753171 x[1,3]
   - 0.0866198174673272 x[1,4] - 0.020608527578306 x[1,5]
   - 0.0606351522598978 x[1,6] - 0.0251910448907492 x[1,7]
   - 0.1184542324283502 x[1,8] - 0.0876566440100866 x[1,9]
   - 0.0830101250592015 x[1,10] - 0.0566798510041857 x[1,11]
   - 0.1248159952894794 x[1,12] - 0.0312584002150455 x[1,13]
   - 0.1066523302996557 x[1,14] + 0.0314376048026829 x[2,1]
   + 0.0781075995545486 x[2,2] + 0.0504716920753171 x[2,3]
   + 0.0866198174673272 x[2,4] + 0.020608527578306 x[2,5]
   + 0.0606351522598978 x[2,6] + 0.0251910448907492 x[2,7]
   + 0.1184542324283502 x[2,8] + 0.0876566440100866 x[2,9]
   + 0.0830101250592015 x[2,10] + 0.0566798510041857 x[2,11]
   + 0.1248159952894794 x[2,12] + 0.0312584002150455 x[2,13]
   + 0.1066523302996557 x[2,14] >= 0
 findWorstP[2,3]: z + 0.0384009830651665 cashProportion[2]
   - 0.0384009830651665 cashProportion[3] + 0.0314376048026829 x[2,1]
   + 0.0781075995545486 x[2,2] + 0.0504716920753171 x[2,3]
   + 0.0866198174673272 x[2,4] + 0.020608527578306 x[2,5]
   + 0.0606351522598978 x[2,6] + 0.0251910448907492 x[2,7]
   + 0.1184542324283502 x[2,8] + 0.0876566440100866 x[2,9]
   + 0.0830101250592015 x[2,10] + 0.0566798510041857 x[2,11]
   + 0.1248159952894794 x[2,12] + 0.0312584002150455 x[2,13]
   + 0.1066523302996557 x[2,14] - 0.0314376048026829 x[3,1]
   - 0.0781075995545486 x[3,2] - 0.0504716920753171 x[3,3]
   - 0.0866198174673272 x[3,4] - 0.020608527578306 x[3,5]
   - 0.0606351522598978 x[3,6] - 0.0251910448907492 x[3,7]
   - 0.1184542324283502 x[3,8] - 0.0876566440100866 x[3,9]
   - 0.0830101250592015 x[3,10] - 0.0566798510041857 x[3,11]
   - 0.1248159952894794 x[3,12] - 0.0312584002150455 x[3,13]
   - 0.1066523302996557 x[3,14] >= 0
 findWorstP[3,1]: z - 0.0472098951940327 cashProportion[1]
   + 0.0472098951940327 cashProportion[3] - 0.1485538035438895 x[1,1]
   - 0.0156579485726875 x[1,2] - 0.029348818178957 x[1,3]
   - 0.1299058949422466 x[1,4] - 0.0268781669971359 x[1,5]
   - 0.1300475246278287 x[1,6] - 0.0468007427690177 x[1,7]
   - 0.099203726434394 x[1,8] - 0.0382557517388978 x[1,9]
   - 0.0399395713341516 x[1,10] - 0.0149812734082397 x[1,11]
   - 0.0903597394013785 x[1,12] - 0.1294180593585749 x[1,13]
   - 0.013439083498568 x[1,14] + 0.1485538035438895 x[3,1]
   + 0.0156579485726875 x[3,2] + 0.029348818178957 x[3,3]
   + 0.1299058949422466 x[3,4] + 0.0268781669971359 x[3,5]
   + 0.1300475246278287 x[3,6] + 0.0468007427690177 x[3,7]
   + 0.099203726434394 x[3,8] + 0.0382557517388978 x[3,9]
   + 0.0399395713341516 x[3,10] + 0.0149812734082397 x[3,11]
   + 0.0903597394013785 x[3,12] + 0.1294180593585749 x[3,13]
   + 0.013439083498568 x[3,14] >= 0
 findWorstP[3,2]: z - 0.0472098951940327 cashProportion[2]
   + 0.0472098951940327 cashProportion[3] - 0.1485538035438895 x[2,1]
   - 0.0156579485726875 x[2,2] - 0.029348818178957 x[2,3]
   - 0.1299058949422466 x[2,4] - 0.0268781669971359 x[2,5]
   - 0.1300475246278287 x[2,6] - 0.0468007427690177 x[2,7]
   - 0.099203726434394 x[2,8] - 0.0382557517388978 x[2,9]
   - 0.0399395713341516 x[2,10] - 0.0149812734082397 x[2,11]
   - 0.0903597394013785 x[2,12] - 0.1294180593585749 x[2,13]
   - 0.013439083498568 x[2,14] + 0.1485538035438895 x[3,1]
   + 0.0156579485726875 x[3,2] + 0.029348818178957 x[3,3]
   + 0.1299058949422466 x[3,4] + 0.0268781669971359 x[3,5]
   + 0.1300475246278287 x[3,6] + 0.0468007427690177 x[3,7]
   + 0.099203726434394 x[3,8] + 0.0382557517388978 x[3,9]
   + 0.0399395713341516 x[3,10] + 0.0149812734082397 x[3,11]
   + 0.0903597394013785 x[3,12] + 0.1294180593585749 x[3,13]
   + 0.013439083498568 x[3,14] >= 0
Bounds
 z <= 1
 -infinity <= cashProportion[1] <= 1
 -infinity <= cashProportion[2] <= 1
 -infinity <= cashProportion[3] <= 1
Binaries
 x[1,1] x[1,2] x[1,3] x[1,4] x[1,5] x[1,6] x[1,7] x[1,8] x[1,9] x[1,10]
 x[1,11] x[1,12] x[1,13] x[1,14] x[2,1] x[2,2] x[2,3] x[2,4] x[2,5] x[2,6]
 x[2,7] x[2,8] x[2,9] x[2,10] x[2,11] x[2,12] x[2,13] x[2,14] x[3,1] x[3,2]
 x[3,3] x[3,4] x[3,5] x[3,6] x[3,7] x[3,8] x[3,9] x[3,10] x[3,11] x[3,12]
 x[3,13] x[3,14]
End
