data/mps_files/pEFS/54_5.mps
NAME foo
ROWS
 N  OBJ
 E  allocateEach[1]
 E  allocateEach[2]
 E  allocateEach[3]
 E  allocateEach[4]
 E  allocateEach[5]
 E  allocateEach[6]
 E  allocateEach[7]
 E  allocateEach[8]
 E  allocateEach[9]
 E  allocateEach[10]
 E  allocateEach[11]
 E  allocateEach[12]
 E  allocateEach[13]
 E  allocateEach[14]
 E  allocateAllCash
 G  findWorstP[1,2]
 G  findWorstP[1,3]
 G  findWorstP[2,1]
 G  findWorstP[2,3]
 G  findWorstP[3,1]
 G  findWorstP[3,2]
COLUMNS
    z         OBJ       1
    z         findWorstP[1,2]  1
    z         findWorstP[1,3]  1
    z         findWorstP[2,1]  1
    z         findWorstP[2,3]  1
    z         findWorstP[3,1]  1
    z         findWorstP[3,2]  1
    cashProportion[1]  allocateAllCash  1
    cashProportion[1]  findWorstP[1,2]  4.5072792559984379e-02
    cashProportion[1]  findWorstP[1,3]  4.5072792559984379e-02
    cashProportion[1]  findWorstP[2,1]  -3.8400983065166462e-02
    cashProportion[1]  findWorstP[3,1]  -4.7209895194032674e-02
    cashProportion[2]  allocateAllCash  1
    cashProportion[2]  findWorstP[1,2]  -4.5072792559984379e-02
    cashProportion[2]  findWorstP[2,1]  3.8400983065166462e-02
    cashProportion[2]  findWorstP[2,3]  3.8400983065166462e-02
    cashProportion[2]  findWorstP[3,2]  -4.7209895194032674e-02
    cashProportion[3]  allocateAllCash  1
    cashProportion[3]  findWorstP[1,3]  -4.5072792559984379e-02
    cashProportion[3]  findWorstP[2,3]  -3.8400983065166462e-02
    cashProportion[3]  findWorstP[3,1]  4.7209895194032674e-02
    cashProportion[3]  findWorstP[3,2]  4.7209895194032674e-02
    MARKER    'MARKER'                 'INTORG'
    x[1,1]    allocateEach[1]  1
    x[1,1]    findWorstP[1,2]  3.7109932541053805e-03
    x[1,1]    findWorstP[1,3]  3.7109932541053805e-03
    x[1,1]    findWorstP[2,1]  -3.1437604802682949e-02
    x[1,1]    findWorstP[3,1]  -1.4855380354388947e-01
    x[1,2]    allocateEach[2]  1
    x[1,2]    findWorstP[1,2]  3.2016706981775570e-02
    x[1,2]    findWorstP[1,3]  3.2016706981775570e-02
    x[1,2]    findWorstP[2,1]  -7.8107599554548587e-02
    x[1,2]    findWorstP[3,1]  -1.5657948572687503e-02
    x[1,3]    allocateEach[3]  1
    x[1,3]    findWorstP[1,2]  1.4092759807088448e-01
    x[1,3]    findWorstP[1,3]  1.4092759807088448e-01
    x[1,3]    findWorstP[2,1]  -5.0471692075317119e-02
    x[1,3]    findWorstP[3,1]  -2.9348818178956980e-02
    x[1,4]    allocateEach[4]  1
    x[1,4]    findWorstP[1,2]  1.4753827431301553e-01
    x[1,4]    findWorstP[1,3]  1.4753827431301553e-01
    x[1,4]    findWorstP[2,1]  -8.6619817467327151e-02
    x[1,4]    findWorstP[3,1]  -1.2990589494224658e-01
    x[1,5]    allocateEach[5]  1
    x[1,5]    findWorstP[1,2]  7.4956054027254027e-02
    x[1,5]    findWorstP[1,3]  7.4956054027254027e-02
    x[1,5]    findWorstP[2,1]  -2.0608527578306002e-02
    x[1,5]    findWorstP[3,1]  -2.6878166997135938e-02
    x[1,6]    allocateEach[6]  1
    x[1,6]    findWorstP[1,2]  4.2668910290118545e-02
    x[1,6]    findWorstP[1,3]  4.2668910290118545e-02
    x[1,6]    findWorstP[2,1]  -6.0635152259897844e-02
    x[1,6]    findWorstP[3,1]  -1.3004752462782868e-01
    x[1,7]    allocateEach[7]  1
    x[1,7]    findWorstP[1,2]  4.4456797728331256e-02
    x[1,7]    findWorstP[1,3]  4.4456797728331256e-02
    x[1,7]    findWorstP[2,1]  -0.0251910448907492
    x[1,7]    findWorstP[3,1]  -4.6800742769017724e-02
    x[1,8]    allocateEach[8]  1
    x[1,8]    findWorstP[1,2]  1.1388392253489388e-02
    x[1,8]    findWorstP[1,3]  1.1388392253489388e-02
    x[1,8]    findWorstP[2,1]  -1.1845423242835015e-01
    x[1,8]    findWorstP[3,1]  -9.9203726434393985e-02
    x[1,9]    allocateEach[9]  1
    x[1,9]    findWorstP[1,2]  6.1268949353205433e-02
    x[1,9]    findWorstP[1,3]  6.1268949353205433e-02
    x[1,9]    findWorstP[2,1]  -8.7656644010086646e-02
    x[1,9]    findWorstP[3,1]  -3.8255751738897815e-02
    x[1,10]   allocateEach[10]  1
    x[1,10]   findWorstP[1,2]  1.1332802475998739e-01
    x[1,10]   findWorstP[1,3]  1.1332802475998739e-01
    x[1,10]   findWorstP[2,1]  -0.0830101250592015
    x[1,10]   findWorstP[3,1]  -3.9939571334151644e-02
    x[1,11]   allocateEach[11]  1
    x[1,11]   findWorstP[1,2]  4.8573446115476496e-02
    x[1,11]   findWorstP[1,3]  4.8573446115476496e-02
    x[1,11]   findWorstP[2,1]  -5.6679851004185704e-02
    x[1,11]   findWorstP[3,1]  -1.4981273408239704e-02
    x[1,12]   allocateEach[12]  1
    x[1,12]   findWorstP[1,2]  1.4492405234453645e-01
    x[1,12]   findWorstP[1,3]  1.4492405234453645e-01
    x[1,12]   findWorstP[2,1]  -1.2481599528947940e-01
    x[1,12]   findWorstP[3,1]  -9.0359739401378550e-02
    x[1,13]   allocateEach[13]  1
    x[1,13]   findWorstP[1,2]  3.2858065776228615e-02
    x[1,13]   findWorstP[1,3]  3.2858065776228615e-02
    x[1,13]   findWorstP[2,1]  -0.0312584002150455
    x[1,13]   findWorstP[3,1]  -1.2941805935857492e-01
    x[1,14]   allocateEach[14]  1
    x[1,14]   findWorstP[1,2]  5.6310942171607155e-02
    x[1,14]   findWorstP[1,3]  5.6310942171607155e-02
    x[1,14]   findWorstP[2,1]  -1.0665233029965566e-01
    x[1,14]   findWorstP[3,1]  -1.3439083498567969e-02
    x[2,1]    allocateEach[1]  1
    x[2,1]    findWorstP[1,2]  -3.7109932541053805e-03
    x[2,1]    findWorstP[2,1]  3.1437604802682949e-02
    x[2,1]    findWorstP[2,3]  3.1437604802682949e-02
    x[2,1]    findWorstP[3,2]  -1.4855380354388947e-01
    x[2,2]    allocateEach[2]  1
    x[2,2]    findWorstP[1,2]  -3.2016706981775570e-02
    x[2,2]    findWorstP[2,1]  7.8107599554548587e-02
    x[2,2]    findWorstP[2,3]  7.8107599554548587e-02
    x[2,2]    findWorstP[3,2]  -1.5657948572687503e-02
    x[2,3]    allocateEach[3]  1
    x[2,3]    findWorstP[1,2]  -1.4092759807088448e-01
    x[2,3]    findWorstP[2,1]  5.0471692075317119e-02
    x[2,3]    findWorstP[2,3]  5.0471692075317119e-02
    x[2,3]    findWorstP[3,2]  -2.9348818178956980e-02
    x[2,4]    allocateEach[4]  1
    x[2,4]    findWorstP[1,2]  -1.4753827431301553e-01
    x[2,4]    findWorstP[2,1]  8.6619817467327151e-02
    x[2,4]    findWorstP[2,3]  8.6619817467327151e-02
    x[2,4]    findWorstP[3,2]  -1.2990589494224658e-01
    x[2,5]    allocateEach[5]  1
    x[2,5]    findWorstP[1,2]  -7.4956054027254027e-02
    x[2,5]    findWorstP[2,1]  2.0608527578306002e-02
    x[2,5]    findWorstP[2,3]  2.0608527578306002e-02
    x[2,5]    findWorstP[3,2]  -2.6878166997135938e-02
    x[2,6]    allocateEach[6]  1
    x[2,6]    findWorstP[1,2]  -4.2668910290118545e-02
    x[2,6]    findWorstP[2,1]  6.0635152259897844e-02
    x[2,6]    findWorstP[2,3]  6.0635152259897844e-02
    x[2,6]    findWorstP[3,2]  -1.3004752462782868e-01
    x[2,7]    allocateEach[7]  1
    x[2,7]    findWorstP[1,2]  -4.4456797728331256e-02
    x[2,7]    findWorstP[2,1]  0.0251910448907492
    x[2,7]    findWorstP[2,3]  0.0251910448907492
    x[2,7]    findWorstP[3,2]  -4.6800742769017724e-02
    x[2,8]    allocateEach[8]  1
    x[2,8]    findWorstP[1,2]  -1.1388392253489388e-02
    x[2,8]    findWorstP[2,1]  1.1845423242835015e-01
    x[2,8]    findWorstP[2,3]  1.1845423242835015e-01
    x[2,8]    findWorstP[3,2]  -9.9203726434393985e-02
    x[2,9]    allocateEach[9]  1
    x[2,9]    findWorstP[1,2]  -6.1268949353205433e-02
    x[2,9]    findWorstP[2,1]  8.7656644010086646e-02
    x[2,9]    findWorstP[2,3]  8.7656644010086646e-02
    x[2,9]    findWorstP[3,2]  -3.8255751738897815e-02
    x[2,10]   allocateEach[10]  1
    x[2,10]   findWorstP[1,2]  -1.1332802475998739e-01
    x[2,10]   findWorstP[2,1]  0.0830101250592015
    x[2,10]   findWorstP[2,3]  0.0830101250592015
    x[2,10]   findWorstP[3,2]  -3.9939571334151644e-02
    x[2,11]   allocateEach[11]  1
    x[2,11]   findWorstP[1,2]  -4.8573446115476496e-02
    x[2,11]   findWorstP[2,1]  5.6679851004185704e-02
    x[2,11]   findWorstP[2,3]  5.6679851004185704e-02
    x[2,11]   findWorstP[3,2]  -1.4981273408239704e-02
    x[2,12]   allocateEach[12]  1
    x[2,12]   findWorstP[1,2]  -1.4492405234453645e-01
    x[2,12]   findWorstP[2,1]  1.2481599528947940e-01
    x[2,12]   findWorstP[2,3]  1.2481599528947940e-01
    x[2,12]   findWorstP[3,2]  -9.0359739401378550e-02
    x[2,13]   allocateEach[13]  1
    x[2,13]   findWorstP[1,2]  -3.2858065776228615e-02
    x[2,13]   findWorstP[2,1]  0.0312584002150455
    x[2,13]   findWorstP[2,3]  0.0312584002150455
    x[2,13]   findWorstP[3,2]  -1.2941805935857492e-01
    x[2,14]   allocateEach[14]  1
    x[2,14]   findWorstP[1,2]  -5.6310942171607155e-02
    x[2,14]   findWorstP[2,1]  1.0665233029965566e-01
    x[2,14]   findWorstP[2,3]  1.0665233029965566e-01
    x[2,14]   findWorstP[3,2]  -1.3439083498567969e-02
    x[3,1]    allocateEach[1]  1
    x[3,1]    findWorstP[1,3]  -3.7109932541053805e-03
    x[3,1]    findWorstP[2,3]  -3.1437604802682949e-02
    x[3,1]    findWorstP[3,1]  1.4855380354388947e-01
    x[3,1]    findWorstP[3,2]  1.4855380354388947e-01
    x[3,2]    allocateEach[2]  1
    x[3,2]    findWorstP[1,3]  -3.2016706981775570e-02
    x[3,2]    findWorstP[2,3]  -7.8107599554548587e-02
    x[3,2]    findWorstP[3,1]  1.5657948572687503e-02
    x[3,2]    findWorstP[3,2]  1.5657948572687503e-02
    x[3,3]    allocateEach[3]  1
    x[3,3]    findWorstP[1,3]  -1.4092759807088448e-01
    x[3,3]    findWorstP[2,3]  -5.0471692075317119e-02
    x[3,3]    findWorstP[3,1]  2.9348818178956980e-02
    x[3,3]    findWorstP[3,2]  2.9348818178956980e-02
    x[3,4]    allocateEach[4]  1
    x[3,4]    findWorstP[1,3]  -1.4753827431301553e-01
    x[3,4]    findWorstP[2,3]  -8.6619817467327151e-02
    x[3,4]    findWorstP[3,1]  1.2990589494224658e-01
    x[3,4]    findWorstP[3,2]  1.2990589494224658e-01
    x[3,5]    allocateEach[5]  1
    x[3,5]    findWorstP[1,3]  -7.4956054027254027e-02
    x[3,5]    findWorstP[2,3]  -2.0608527578306002e-02
    x[3,5]    findWorstP[3,1]  2.6878166997135938e-02
    x[3,5]    findWorstP[3,2]  2.6878166997135938e-02
    x[3,6]    allocateEach[6]  1
    x[3,6]    findWorstP[1,3]  -4.2668910290118545e-02
    x[3,6]    findWorstP[2,3]  -6.0635152259897844e-02
    x[3,6]    findWorstP[3,1]  1.3004752462782868e-01
    x[3,6]    findWorstP[3,2]  1.3004752462782868e-01
    x[3,7]    allocateEach[7]  1
    x[3,7]    findWorstP[1,3]  -4.4456797728331256e-02
    x[3,7]    findWorstP[2,3]  -0.0251910448907492
    x[3,7]    findWorstP[3,1]  4.6800742769017724e-02
    x[3,7]    findWorstP[3,2]  4.6800742769017724e-02
    x[3,8]    allocateEach[8]  1
    x[3,8]    findWorstP[1,3]  -1.1388392253489388e-02
    x[3,8]    findWorstP[2,3]  -1.1845423242835015e-01
    x[3,8]    findWorstP[3,1]  9.9203726434393985e-02
    x[3,8]    findWorstP[3,2]  9.9203726434393985e-02
    x[3,9]    allocateEach[9]  1
    x[3,9]    findWorstP[1,3]  -6.1268949353205433e-02
    x[3,9]    findWorstP[2,3]  -8.7656644010086646e-02
    x[3,9]    findWorstP[3,1]  3.8255751738897815e-02
    x[3,9]    findWorstP[3,2]  3.8255751738897815e-02
    x[3,10]   allocateEach[10]  1
    x[3,10]   findWorstP[1,3]  -1.1332802475998739e-01
    x[3,10]   findWorstP[2,3]  -0.0830101250592015
    x[3,10]   findWorstP[3,1]  3.9939571334151644e-02
    x[3,10]   findWorstP[3,2]  3.9939571334151644e-02
    x[3,11]   allocateEach[11]  1
    x[3,11]   findWorstP[1,3]  -4.8573446115476496e-02
    x[3,11]   findWorstP[2,3]  -5.6679851004185704e-02
    x[3,11]   findWorstP[3,1]  1.4981273408239704e-02
    x[3,11]   findWorstP[3,2]  1.4981273408239704e-02
    x[3,12]   allocateEach[12]  1
    x[3,12]   findWorstP[1,3]  -1.4492405234453645e-01
    x[3,12]   findWorstP[2,3]  -1.2481599528947940e-01
    x[3,12]   findWorstP[3,1]  9.0359739401378550e-02
    x[3,12]   findWorstP[3,2]  9.0359739401378550e-02
    x[3,13]   allocateEach[13]  1
    x[3,13]   findWorstP[1,3]  -3.2858065776228615e-02
    x[3,13]   findWorstP[2,3]  -0.0312584002150455
    x[3,13]   findWorstP[3,1]  1.2941805935857492e-01
    x[3,13]   findWorstP[3,2]  1.2941805935857492e-01
    x[3,14]   allocateEach[14]  1
    x[3,14]   findWorstP[1,3]  -5.6310942171607155e-02
    x[3,14]   findWorstP[2,3]  -1.0665233029965566e-01
    x[3,14]   findWorstP[3,1]  1.3439083498567969e-02
    x[3,14]   findWorstP[3,2]  1.3439083498567969e-02
    MARKER    'MARKER'                 'INTEND'
RHS
    RHS1      allocateEach[1]  1
    RHS1      allocateEach[2]  1
    RHS1      allocateEach[3]  1
    RHS1      allocateEach[4]  1
    RHS1      allocateEach[5]  1
    RHS1      allocateEach[6]  1
    RHS1      allocateEach[7]  1
    RHS1      allocateEach[8]  1
    RHS1      allocateEach[9]  1
    RHS1      allocateEach[10]  1
    RHS1      allocateEach[11]  1
    RHS1      allocateEach[12]  1
    RHS1      allocateEach[13]  1
    RHS1      allocateEach[14]  1
    RHS1      allocateAllCash  1
BOUNDS
 UP BND1      z         1
 MI BND1      cashProportion[1]
 UP BND1      cashProportion[1]  1
 MI BND1      cashProportion[2]
 UP BND1      cashProportion[2]  1
 MI BND1      cashProportion[3]
 UP BND1      cashProportion[3]  1
 BV BND1      x[1,1]  
 BV BND1      x[1,2]  
 BV BND1      x[1,3]  
 BV BND1      x[1,4]  
 BV BND1      x[1,5]  
 BV BND1      x[1,6]  
 BV BND1      x[1,7]  
 BV BND1      x[1,8]  
 BV BND1      x[1,9]  
 BV BND1      x[1,10] 
 BV BND1      x[1,11] 
 BV BND1      x[1,12] 
 BV BND1      x[1,13] 
 BV BND1      x[1,14] 
 BV BND1      x[2,1]  
 BV BND1      x[2,2]  
 BV BND1      x[2,3]  
 BV BND1      x[2,4]  
 BV BND1      x[2,5]  
 BV BND1      x[2,6]  
 BV BND1      x[2,7]  
 BV BND1      x[2,8]  
 BV BND1      x[2,9]  
 BV BND1      x[2,10] 
 BV BND1      x[2,11] 
 BV BND1      x[2,12] 
 BV BND1      x[2,13] 
 BV BND1      x[2,14] 
 BV BND1      x[3,1]  
 BV BND1      x[3,2]  
 BV BND1      x[3,3]  
 BV BND1      x[3,4]  
 BV BND1      x[3,5]  
 BV BND1      x[3,6]  
 BV BND1      x[3,7]  
 BV BND1      x[3,8]  
 BV BND1      x[3,9]  
 BV BND1      x[3,10] 
 BV BND1      x[3,11] 
 BV BND1      x[3,12] 
 BV BND1      x[3,13] 
 BV BND1      x[3,14] 
ENDATA
